c This is QMaxSAT 2017 based on 14.07
c This is Glucose 3.0
c This is MiniSat 2.2.0
c WARNING: for repeatability, setting FPU to use double precision
c card = mrwto, comp = 0, pmodel = 0, narr = 2, mct = 42, verb = 0
cr firstCPXsol 0 0 0
c top = 127531
c |  Number of variables:    3698                                             |
c |  Number of clauses:      147358                                           |
c |  Weight of hard clauses: 127531                                           |
c |  Number of soft clauses: 3608                                             |
c |  Number of unit soft clauses: 0                                           |
c |  Maximum Cardinality (by unit): 269764       (0           )               |
c last restart ## conflicts  :  0 93 
o 624 | cpuTime 0.019888 s
c Sum of weights = 134882
c A number of soft clauses remained = 1804
c MRWTO encoding for Pseudo-Boolean Constraints
c sizeMax=624
c No.0 Divisor=9	generated by pow1
c No.1 Divisor=9	generated by pow1
c No.2 Divisor=9	generated by pow1
c p0= 9	p1= 9	p2= 9	
c number of digits = 4
c linkingVar[0].size = 9, linkingVar[1].size = 9, linkingVar[2].size = 8, linkingVar[3].size = 1, 
c Pseudo-Boolean Constraints: 32526 variables and 241053 clauses
c Sum of weights = 134882
c A number of soft clauses remained = 1804
c MRWTO encoding for Pseudo-Boolean Constraints
c sizeMax=624
c No.0 Divisor=9	generated by pow1
c No.1 Divisor=9	generated by pow1
c No.2 Divisor=9	generated by pow1
c p0= 9	p1= 9	p2= 9	
c number of digits = 4
c linkingVar[0].size = 9, linkingVar[1].size = 9, linkingVar[2].size = 8, linkingVar[3].size = 1, 
c Pseudo-Boolean Constraints: 32526 variables and 241053 clauses
s UNKNOWN
c Search is stopped by a limit (maybe time-limit)
cr positiVarArr: [ | 3(1->2) | 47(1->3) | 91(2->4) | 135(3->5) | 179(4->6) | 223(5->7) | 267(6->8) | 311(7->9) | 355(8->10) | 399(9->11) | 443(10->12) | 487(11->13) | 531(12->14) | 575(13->15) | 619(14->16) | 663(15->17) | 707(16->18) | 751(17->19) | 795(18->20) | 839(19->21) | 883(20->22) | 927(21->23) | 971(22->24) | 1015(23->25) | 1059(24->26) | 1103(25->27) | 1147(26->28) | 1191(27->29) | 1235(28->30) | 1279(29->31) | 1323(30->32) | 1367(31->33) | 1411(32->34) | 1455(33->35) | 1499(34->36) | 1543(35->37) | 1587(36->38) | 1631(37->39) | 1675(38->40) | 1719(39->41) | 1763(40->42) | 1765(41->1) | 1807(42->1) | ]
cr the 1-th chain: [ 1->2->4->6->8->10->12->14->16->18->20->22->24->26->28->30->32->34->36->38->40->42->1 ] (#non-depot=21) {#cumul.=22}
cr the 2-th chain: [ 1->3->5->7->9->11->13->15->17->19->21->23->25->27->29->31->33->35->37->39->41->1 ] (#non-depot=20) {#cumul.=42}
c Latest Answer = 0 by 1 loops
c restarts              : 62028
c conflicts             : 18424334       (5125 /sec)
c decisions             : 74074121       (0.00 % random) (20606 /sec)
c propagations          : 21114245571    (5873524 /sec)
c conflict literals     : 2139880312     (31.38 % deleted)
c Memory used           : 417.00 MB
c CPU time              : 3594.82 s
